<instance format="XCSP3" type="CSP">
  <constraints>
    <knapsack id="c1">
      <list>  y1 y2 y3 y4 y5 y6 y7 </list>
      <weights> 12 7 21 36 19 22 30 </weights>
      <condition> (le,40) </condition>
      <profits> 12 7 21 36 19 22 30 </profits>
      <condition> (ge,35) </condition>
    </knapsack>
  </constraints>
</instance>
